143
10000
286
302
714
2251
1863
1645
625
480
623
1797
1774
207
107
1156
937
401
352
1521
58
1943
472
1937
1525
442
177
1737
240
2186
297
1885
2380
748
755
2287
371
1947
400
2220
977
1054
1217
509
1888
603
314
522
448
385
1629
2442
791
1706
1357
103
252
2053
1228
22
1476
2301
1805
860
92
736
1039
900
305
482
520
323
1641
261
1121
2176
1298
824
838
279
828
1832
1509
1111
1829
1499
297
1065
1915
97
378
176
963
1296
815
235
34
1315
390
430
186
1948
876
745
2149
2155
1636
2273
986
1799
1045
1452
1327
478
1671
2282
502
2454
1306
1645
297
1817
202
1329
2037
1453
429
69
1087
934
1223
39
525
1491
616
468
944
1
1681
360
660
2118
1348
1557
561
